
  24    0


   0  15 2 3 4 5 6 7 8 9 10 11 19 20 21 22 23 
   5   5 17 16 15 13 12 
   8   4 18 16 14 12 
   3   3 17 14 13 
   3   3 17 14 12 
   8   2 15 14 
   1   2 16 12 
   2   1 15 
   1   1 13 
   8   1 13 
   5   1 12 
   1   1 24
   7   1 24
   5   1 24
   5   1 24
   2   1 24
   6   1 24
   8   1 24
   3   1 24
   2   1 24
   7   1 24
   5   1 24
   5   1 24
   0   0 
